NAME : CC60.2011058.tour
COMMENT : Cost = 0_2011058
COMMENT : Found by LKH [Keld Helsgaun] Sun Apr 23 15:14:36 2017
TYPE : TOUR
DIMENSION : 124
TOUR_SECTION
1
61
121
28
88
18
38
98
78
51
111
11
71
23
83
30
90
43
103
12
72
57
60
117
55
115
120
19
79
122
7
67
49
109
14
74
5
65
3
63
56
116
4
64
6
66
27
87
22
82
29
46
89
58
118
106
34
24
94
2
84
62
124
13
73
47
107
42
102
52
8
68
112
44
104
20
80
59
119
37
97
53
31
113
91
9
69
123
33
93
36
96
35
95
16
76
41
32
92
101
45
105
50
110
15
75
40
100
48
108
17
26
77
86
25
39
85
54
114
21
81
10
99
70
-1
EOF
